10653874244104323695011,9,1,2,05,10,1,2,01,8,1,2,08,4,1,2,03,12,1,2,01,7,1,2,06,3,1,2,04,10,1,2,010,8,1,2,011,14,1,2,015,7,1,2,013,8,1,2,07,2,1,2,09,9,1,2,010,5,1,2,013,7,1,2,011,4,1,2,02,11,1,2,011,2,1,2,02,12,1,2,015,6,1,2,09,5,1,2,09,6,1,2,014,13,1,2,014,1,1,2,012,4,1,2,011,15,1,2,015,7,1,2,013,3,1,2,010,7,1,2,01,2,1,2,015,4,1,2,014,7,1,2,01,4,1,2,014,10,1,2,05,3,1,2,05,10,1,2,010,4,1,2,011,3,1,2,013,11,1,2,015,14,1,2,07,14,1,2,03,4,1,2,013,8,1,2,03,6,1,2,04,8,1,2,013,11,1,2,08,5,1,2,013,8,1,2,01,14,1,2,0